1 3639 1315
2 3569 1438
3 3904 1289
4 3506 1221
5 3237 1764
6 3089 1251
7 3238 1229
8 4172 1125
9 4020 1142
10 4095 626
11 4403 1022
12 4361 73
13 4634 654
14 2846 1951
15 3054 1710
16 2562 1756
17 2291 1403
18 2012 1552
19 682 825
20 518 1251
21 1332 695
22 4016 1715
23 4087 1546
24 4062 2220
25 4061 2370
26 4201 2397
27 3777 2095
28 3888 2261
29 3678 2463
30 3789 2620
31 3862 2839
32 4263 2931
33 3492 1901
34 3479 2198
35 3318 2408
36 3296 2217
37 3394 2643
38 3101 2721
39 3792 3156
40 3143 3421
41 3130 2973
42 2765 3321
43 2545 2357
44 2611 2275
45 2860 2862
46 2801 2700
47 2370 2975
48 1084 2313
49 4177 2244
50 3757 1187
